WARNING: for repeatability, setting FPU to use double precision
============================[ Problem Statistics ]=============================
|                                                                             |
|  Number of variables:            18                                         |
|  Number of clauses:              81                                         |
|  Parse time:                   0.00 s                                       |
|                                                                             |
============================[ Search Statistics ]==============================
| Conflicts |          ORIGINAL         |          LEARNT          | Progress |
|           |    Vars  Clauses Literals |    Limit  Clauses Lit/Cl |          |
===============================================================================
===============================================================================
restarts              : 1
conflicts             : 2              (998 /sec)
decisions             : 1              (0.00 % random) (499 /sec)
propagations          : 22             (10978 /sec)
conflict literals     : 1              (0.00 % deleted)
Memory used           : 11.00 MB
CPU time              : 0.002004 s

UNSATISFIABLE
